74
8
0 8 11 13 14 15 16 17 18 20 22 23 24 28 29 33 34 35 39 40 41 45 47 48 49 50 54 55 56 60 61 62 66 67 69 72 73
1 9 10 11 13 14 15 16 17 20 21 24 25 26 28 29 34 35 37 38 40 44 46 47 49 50 52 54 56 57 58 59 60 63 64 66 68 69 71 72 73
2 8 13 14 19 23 25 26 28 31 32 35 37 39 40 41 42 45 47 48 50 51 59 60 61 62 64 65 69 73
3 9 11 13 15 16 22 23 24 26 27 30 34 35 36 38 40 43 46 47 49 50 55 56 57 60 61 62 66 68 69 70 71 72 73
4 12 14 17 18 24 26 28 29 32 34 35 36 38 42 43 44 47 49 52 54 55 56 57 62 64
5 14 15 16 18 22 24 25 26 27 32 34 38 43 44 45 48 50 53 58 59 63 66
6 11 16 18 22 37 40 41 51 59 64 67 71
7 9 26 44 46 69
